proyfinal/src/viki/013/experimentInOfficeAgust.take6.output/88ba9cb9-321e-4fa6-a85b-46dfed5373c8.als.dat
{'cnf.clauses': '118081',
 'cnf.totvars': '69608',
 'conflict literals': '2127',
 'conflicts': '270',
 'decisions': '7579',
 'memused.mb': '16.55',
 'outcome': 'UNSAT',
 'propagations': '332385',
 'restarts': '3',
 'solver.msecs': 45,
 'task.msecs': 136}
